(set-info :source |printed by MathSAT|)
(declare-fun |fibo1::n__param__@2| () (_ BitVec 32))
(declare-fun |fibo1::n@2| () (_ BitVec 32))
(declare-fun |fibo2::n__param__@2| () (_ BitVec 32))
(declare-fun |fibo2::n@2| () (_ BitVec 32))
(declare-fun |fibo1::n__param__@3| () (_ BitVec 32))
(declare-fun |fibo2::__retval__@2| () (_ BitVec 32))
(declare-fun |fibo2::n__param__@3| () (_ BitVec 32))
(declare-fun |fibo2::__retval__@3| () (_ BitVec 32))
(declare-fun |fibo1::iVar2@6| () (_ BitVec 32))
(declare-fun |fibo1::__retval__@2| () (_ BitVec 32))
(declare-fun |fibo1::n@3| () (_ BitVec 32))
(declare-fun |fibo2::n@3| () (_ BitVec 32))
(declare-fun |fibo2::iVar2@4| () (_ BitVec 32))
(declare-fun |fibo1::iVar1@5| () (_ BitVec 32))
(declare-fun |fibo1::iVar2@7| () (_ BitVec 32))
(declare-fun |fibo1::__retval__@3| () (_ BitVec 32))
(declare-fun |fibo1::__retval__@5| () (_ BitVec 32))
(declare-fun |fibo2::iVar2@11| () (_ BitVec 32))
(declare-fun |fibo2::n__param__@5| () (_ BitVec 32))
(declare-fun |fibo2::n@5| () (_ BitVec 32))
(declare-fun |fibo2::iVar2@7| () (_ BitVec 32))
(declare-fun |fibo2::iVar1@8| () (_ BitVec 32))
(declare-fun |fibo1::n__param__@7| () (_ BitVec 32))
(declare-fun |fibo1::n@7| () (_ BitVec 32))
(declare-fun |fibo1::iVar2@10| () (_ BitVec 32))
(declare-fun |fibo2::iVar2@12| () (_ BitVec 32))
(declare-fun |fibo2::__retval__@6| () (_ BitVec 32))
(declare-fun |fibo1::iVar1@11| () (_ BitVec 32))
(declare-fun |fibo2::n__param__@10| () (_ BitVec 32))
(declare-fun |fibo2::n@10| () (_ BitVec 32))
(declare-fun |fibo1::n__param__@10| () (_ BitVec 32))
(declare-fun |fibo1::n@10| () (_ BitVec 32))
(declare-fun |fibo1::iVar2@14| () (_ BitVec 32))
(declare-fun |fibo2::iVar1@13| () (_ BitVec 32))
(declare-fun |fibo1::n__param__@12| () (_ BitVec 32))
(declare-fun |fibo1::n@12| () (_ BitVec 32))
(declare-fun |fibo1::iVar2@17| () (_ BitVec 32))
(declare-fun |fibo1::__retval__@6| () (_ BitVec 32))
(declare-fun |fibo2::iVar2@17| () (_ BitVec 32))
(declare-fun |fibo2::iVar2@18| () (_ BitVec 32))
(declare-fun |fibo2::__retval__@9| () (_ BitVec 32))
(declare-fun |fibo1::iVar2@20| () (_ BitVec 32))
(declare-fun |fibo1::iVar2@21| () (_ BitVec 32))
(declare-fun |fibo1::__retval__@8| () (_ BitVec 32))
(declare-fun |main::iVar1@12| () (_ BitVec 32))
(assert (let ((.def_13 (= |fibo1::n__param__@2| |fibo1::n@2|)))(let ((.def_11 (= |fibo1::n__param__@2| (_ bv4 32))))(let ((.def_341 (and .def_11 .def_13)))(let ((.def_15 (bvslt |fibo1::n@2| (_ bv1 32))))(let ((.def_18 (not .def_15)))(let ((.def_342 (and .def_18 .def_341)))(let ((.def_20 (= |fibo1::n@2| (_ bv1 32))))(let ((.def_23 (not .def_20)))(let ((.def_343 (and .def_23 .def_342)))(let ((.def_28 (bvadd (_ bv4294967295 32) |fibo1::n@2|)))(let ((.def_30 (= .def_28 |fibo2::n__param__@2|)))(let ((.def_344 (and .def_30 .def_343)))(let ((.def_32 (= |fibo2::n__param__@2| |fibo2::n@2|)))(let ((.def_345 (and .def_32 .def_344)))(let ((.def_33 (bvslt |fibo2::n@2| (_ bv1 32))))(let ((.def_36 (not .def_33)))(let ((.def_346 (and .def_36 .def_345)))(let ((.def_38 (= |fibo2::n@2| (_ bv1 32))))(let ((.def_41 (not .def_38)))(let ((.def_347 (and .def_41 .def_346)))(let ((.def_45 (bvadd (_ bv4294967295 32) |fibo2::n@2|)))(let ((.def_47 (= .def_45 |fibo1::n__param__@3|)))(let ((.def_348 (and .def_47 .def_347)))(let ((.def_114 (= |fibo1::n__param__@3| |fibo1::n@3|)))(let ((.def_349 (and .def_114 .def_348)))(let ((.def_115 (bvslt |fibo1::n@3| (_ bv1 32))))(let ((.def_117 (not .def_115)))(let ((.def_350 (and .def_117 .def_349)))(let ((.def_119 (= |fibo1::n@3| (_ bv1 32))))(let ((.def_121 (not .def_119)))(let ((.def_351 (and .def_121 .def_350)))(let ((.def_125 (bvadd (_ bv4294967295 32) |fibo1::n@3|)))(let ((.def_126 (= |fibo2::n__param__@3| .def_125)))(let ((.def_352 (and .def_126 .def_351)))(let ((.def_128 (= |fibo2::n__param__@3| |fibo2::n@3|)))(let ((.def_353 (and .def_128 .def_352)))(let ((.def_129 (bvslt |fibo2::n@3| (_ bv1 32))))(let ((.def_131 (not .def_129)))(let ((.def_354 (and .def_131 .def_353)))(let ((.def_133 (= |fibo2::n@3| (_ bv1 32))))(let ((.def_355 (and .def_133 .def_354)))(let ((.def_137 (= |fibo2::iVar2@4| (_ bv1 32))))(let ((.def_356 (and .def_137 .def_355)))(let ((.def_139 (= |fibo2::__retval__@2| |fibo2::iVar2@4|)))(let ((.def_357 (and .def_139 .def_356)))(let ((.def_142 (= |fibo2::__retval__@2| |fibo1::iVar1@5|)))(let ((.def_358 (and .def_142 .def_357)))(let ((.def_145 (bvadd (_ bv4294967294 32) |fibo1::n@3|)))(let ((.def_232 (= .def_145 |fibo2::n__param__@5|)))(let ((.def_359 (and .def_232 .def_358)))(let ((.def_234 (= |fibo2::n__param__@5| |fibo2::n@5|)))(let ((.def_360 (and .def_234 .def_359)))(let ((.def_235 (bvslt |fibo2::n@5| (_ bv1 32))))(let ((.def_361 (and .def_235 .def_360)))(let ((.def_239 (= |fibo2::iVar2@7| (_ bv0 32))))(let ((.def_362 (and .def_239 .def_361)))(let ((.def_241 (= |fibo2::__retval__@3| |fibo2::iVar2@7|)))(let ((.def_363 (and .def_241 .def_362)))(let ((.def_158 (= |fibo2::__retval__@3| |fibo1::iVar2@6|)))(let ((.def_364 (and .def_158 .def_363)))(let ((.def_159 (bvadd |fibo1::iVar2@6| |fibo1::iVar1@5|)))(let ((.def_161 (= .def_159 |fibo1::iVar2@7|)))(let ((.def_365 (and .def_161 .def_364)))(let ((.def_162 (= |fibo1::__retval__@2| |fibo1::iVar2@7|)))(let ((.def_366 (and .def_162 .def_365)))(let ((.def_244 (= |fibo1::__retval__@2| |fibo2::iVar1@8|)))(let ((.def_367 (and .def_244 .def_366)))(let ((.def_168 (bvadd (_ bv4294967294 32) |fibo2::n@2|)))(let ((.def_246 (= .def_168 |fibo1::n__param__@7|)))(let ((.def_368 (and .def_246 .def_367)))(let ((.def_248 (= |fibo1::n__param__@7| |fibo1::n@7|)))(let ((.def_369 (and .def_248 .def_368)))(let ((.def_249 (bvslt |fibo1::n@7| (_ bv1 32))))(let ((.def_251 (not .def_249)))(let ((.def_370 (and .def_251 .def_369)))(let ((.def_253 (= |fibo1::n@7| (_ bv1 32))))(let ((.def_371 (and .def_253 .def_370)))(let ((.def_257 (= |fibo1::iVar2@10| (_ bv1 32))))(let ((.def_372 (and .def_257 .def_371)))(let ((.def_259 (= |fibo1::__retval__@3| |fibo1::iVar2@10|)))(let ((.def_373 (and .def_259 .def_372)))(let ((.def_261 (= |fibo1::__retval__@3| |fibo2::iVar2@11|)))(let ((.def_374 (and .def_261 .def_373)))(let ((.def_262 (bvadd |fibo2::iVar2@11| |fibo2::iVar1@8|)))(let ((.def_264 (= .def_262 |fibo2::iVar2@12|)))(let ((.def_375 (and .def_264 .def_374)))(let ((.def_266 (= |fibo2::iVar2@12| |fibo2::__retval__@6|)))(let ((.def_376 (and .def_266 .def_375)))(let ((.def_269 (= |fibo2::__retval__@6| |fibo1::iVar1@11|)))(let ((.def_377 (and .def_269 .def_376)))(let ((.def_63 (bvadd (_ bv4294967294 32) |fibo1::n@2|)))(let ((.def_271 (= .def_63 |fibo2::n__param__@10|)))(let ((.def_378 (and .def_271 .def_377)))(let ((.def_273 (= |fibo2::n__param__@10| |fibo2::n@10|)))(let ((.def_379 (and .def_273 .def_378)))(let ((.def_274 (bvslt |fibo2::n@10| (_ bv1 32))))(let ((.def_276 (not .def_274)))(let ((.def_380 (and .def_276 .def_379)))(let ((.def_278 (= |fibo2::n@10| (_ bv1 32))))(let ((.def_280 (not .def_278)))(let ((.def_381 (and .def_280 .def_380)))(let ((.def_284 (bvadd (_ bv4294967295 32) |fibo2::n@10|)))(let ((.def_286 (= .def_284 |fibo1::n__param__@10|)))(let ((.def_382 (and .def_286 .def_381)))(let ((.def_288 (= |fibo1::n__param__@10| |fibo1::n@10|)))(let ((.def_383 (and .def_288 .def_382)))(let ((.def_289 (bvslt |fibo1::n@10| (_ bv1 32))))(let ((.def_291 (not .def_289)))(let ((.def_384 (and .def_291 .def_383)))(let ((.def_293 (= |fibo1::n@10| (_ bv1 32))))(let ((.def_385 (and .def_293 .def_384)))(let ((.def_297 (= |fibo1::iVar2@14| (_ bv1 32))))(let ((.def_386 (and .def_297 .def_385)))(let ((.def_299 (= |fibo1::__retval__@5| |fibo1::iVar2@14|)))(let ((.def_387 (and .def_299 .def_386)))(let ((.def_302 (= |fibo1::__retval__@5| |fibo2::iVar1@13|)))(let ((.def_388 (and .def_302 .def_387)))(let ((.def_305 (bvadd (_ bv4294967294 32) |fibo2::n@10|)))(let ((.def_307 (= .def_305 |fibo1::n__param__@12|)))(let ((.def_389 (and .def_307 .def_388)))(let ((.def_309 (= |fibo1::n__param__@12| |fibo1::n@12|)))(let ((.def_390 (and .def_309 .def_389)))(let ((.def_310 (bvslt |fibo1::n@12| (_ bv1 32))))(let ((.def_391 (and .def_310 .def_390)))(let ((.def_314 (= |fibo1::iVar2@17| (_ bv0 32))))(let ((.def_392 (and .def_314 .def_391)))(let ((.def_317 (= |fibo1::iVar2@17| |fibo1::__retval__@6|)))(let ((.def_393 (and .def_317 .def_392)))(let ((.def_320 (= |fibo1::__retval__@6| |fibo2::iVar2@17|)))(let ((.def_394 (and .def_320 .def_393)))(let ((.def_322 (bvadd |fibo2::iVar1@13| |fibo2::iVar2@17|)))(let ((.def_324 (= .def_322 |fibo2::iVar2@18|)))(let ((.def_395 (and .def_324 .def_394)))(let ((.def_326 (= |fibo2::iVar2@18| |fibo2::__retval__@9|)))(let ((.def_396 (and .def_326 .def_395)))(let ((.def_329 (= |fibo2::__retval__@9| |fibo1::iVar2@20|)))(let ((.def_397 (and .def_329 .def_396)))(let ((.def_331 (bvadd |fibo1::iVar1@11| |fibo1::iVar2@20|)))(let ((.def_333 (= .def_331 |fibo1::iVar2@21|)))(let ((.def_398 (and .def_333 .def_397)))(let ((.def_335 (= |fibo1::iVar2@21| |fibo1::__retval__@8|)))(let ((.def_399 (and .def_335 .def_398)))(let ((.def_338 (= |fibo1::__retval__@8| |main::iVar1@12|)))(let ((.def_400 (and .def_338 .def_399)))(let ((.def_339 (= |main::iVar1@12| (_ bv3 32))))(let ((.def_401 (and .def_339 .def_400))).def_401)))))))))))))))))))))))))))))))))))))))))))))))))))))))))))))))))))))))))))))))))))))))))))))))))))))))))))))))))))))))))))))))))))))))))))))))))))